\ENCODING=ISO-8859-1
\Problem name: 

Maximize
 obj: x1 + x2 + x3 + x4 + x5 + x6 + x7 + x8 + x9 + x10 + x11 + x12 + x13 + x14
      + x15 + x16 + x17 + x18 + x19 + x20 + x21 + x22 + x23 + x24 + x25 + x26
      + x27 + x28 + x29 + x30 + x31 + x32 + x33 + x34 + x35 + x36 + x37 + x38
      + x39 + x40 + x41 + x42 + x43 + x44 + x45 + x46 + x47 + x48 + x49 + x50
      + x51 + x52 + x53 + x54 + x55 + x56 + x57 + x58 + x59 + x60 + x61 + x62
      + x63 + x64 + x65 + x66 + x67 + x68 + x69 + x70 + x71 + x72 + x73 + x74
      + x75 + x76 + x77 + x78 + x79 + x80 + x81 + x82 + x83 + x84 + x85 + x86
      + x87 + x88 + x89 + x90 + x91 + x92 + x93 + x94 + x95 + x96 + x97 + x98
      + x99 + x100 + x101 + x102 + x103 + x104 + x105 + x106 + x107 + x108
      + x109 + x110 + x111 + x112 + x113 + x114 + x115 + x116 + x117 + x118
      + x119 + x120 + x121 + x122 + x123 + x124 + x125 + x126 + x127 + x128
      + x129 + x130 + x131 + x132 + x133 + x134 + x135 + x136 + x137 + x138
      + x139 + x140 + x141 + x142 + x143 + x144 + x145 + x146 + x147 + x148
      + x149 + x150 + x151 + x152 + x153 + x154 + x155 + x156 + x157 + x158
      + x159 + x160 + x161 + x162 + x163 + x164 + x165 + x166 + x167 + x168
      + x169 + x170 + x171 + x172 + x173 + x174 + x175
Subject To
 clq1:   x48 + x152 + x173 <= 1
 clq2:   x69 + x96 + x127 <= 1
 clq3:   x126 + x149 + x166 <= 1
 clq4:   x21 + x69 + x128 <= 1
 clq5:   x59 + x133 <= 1
 clq6:   x109 + x133 + x159 <= 1
 clq7:   x27 + x105 + x162 <= 1
 clq8:   x128 + x146 + x173 <= 1
 clq9:   x142 + x163 <= 1
 clq10:  x47 + x74 + x94 <= 1
 clq11:  x80 + x91 + x156 <= 1
 clq12:  x106 + x144 + x145 <= 1
 clq13:  x145 + x151 + x167 <= 1
 clq14:  x113 + x151 <= 1
 clq15:  x13 + x27 + x149 <= 1
 clq16:  x106 + x143 + x156 <= 1
 clq17:  x67 + x137 + x149 <= 1
 clq18:  x17 + x89 + x118 <= 1
 clq19:  x58 + x68 + x87 <= 1
 clq20:  x16 + x87 + x125 <= 1
 clq21:  x35 + x108 + x125 <= 1
 clq22:  x6 + x15 + x78 + x106 <= 1
 clq23:  x24 + x26 + x27 <= 1
 clq24:  x53 + x94 + x136 <= 1
 clq25:  x8 + x39 + x168 <= 1
 clq26:  x64 + x75 + x121 <= 1
 clq27:  x77 + x128 <= 1
 clq28:  x4 + x53 + x59 <= 1
 clq29:  x11 + x40 + x80 <= 1
 clq30:  x3 + x110 + x145 <= 1
 clq31:  x29 + x78 <= 1
 clq32:  x65 + x154 <= 1
 clq33:  x59 + x71 + x110 <= 1
 clq34:  x31 + x47 + x127 <= 1
 clq35:  x61 + x107 <= 1
 clq36:  x18 + x112 <= 1
 clq37:  x45 + x104 <= 1
 clq38:  x7 + x19 + x22 <= 1
 clq39:  x51 + x75 + x155 <= 1
 clq40:  x20 + x151 <= 1
 clq41:  x15 + x116 + x117 <= 1
 clq42:  x22 + x75 + x118 <= 1
 clq43:  x52 + x111 + x153 <= 1
 clq44:  x18 + x108 + x123 <= 1
 clq45:  x2 + x52 + x150 <= 1
 clq46:  x123 + x127 + x136 <= 1
 clq47:  x75 + x93 <= 1
 clq48:  x39 + x106 + x145 <= 1
 clq49:  x134 + x141 <= 1
 clq50:  x23 + x160 <= 1
 clq51:  x47 + x125 + x127 <= 1
 clq52:  x107 + x129 + x154 <= 1
 clq53:  x9 + x74 + x156 <= 1
 clq54:  x21 + x71 + x173 <= 1
 clq55:  x128 + x135 + x142 <= 1
 clq56:  x27 + x50 + x166 <= 1
 clq57:  x27 + x137 + x149 <= 1
 clq58:  x16 + x55 + x150 <= 1
 clq59:  x80 + x168 <= 1
 clq60:  x75 + x102 + x121 <= 1
 clq61:  x30 + x76 + x149 <= 1
 clq62:  x16 + x59 + x125 <= 1
 clq63:  x4 + x125 + x165 <= 1
 clq64:  x52 + x69 + x132 <= 1
 clq65:  x113 + x175 <= 1
 clq66:  x108 + x133 <= 1
 clq67:  x5 + x63 + x88 <= 1
 clq68:  x87 + x88 + x125 <= 1
 clq69:  x21 + x29 + x173 <= 1
 clq70:  x35 + x108 + x122 + x170 <= 1
 clq71:  x33 + x52 + x153 <= 1
 clq72:  x105 + x138 + x173 <= 1
 clq73:  x3 + x91 + x133 <= 1
 clq74:  x117 + x149 + x171 <= 1
 clq75:  x93 + x164 <= 1
 clq76:  x20 + x132 <= 1
 clq77:  x54 + x64 <= 1
 clq78:  x97 + x162 <= 1
 clq79:  x81 + x158 + x171 <= 1
 clq80:  x41 + x45 + x142 <= 1
 clq81:  x44 + x104 + x153 <= 1
 clq82:  x23 + x56 + x85 <= 1
 clq83:  x57 + x100 + x169 <= 1
 clq84:  x41 + x100 + x144 <= 1
 clq85:  x66 + x84 <= 1
 clq86:  x56 + x89 <= 1
 clq87:  x86 + x127 + x173 <= 1
 clq88:  x55 + x118 + x157 <= 1
 clq89:  x37 + x151 + x161 <= 1
 clq90:  x53 + x141 + x147 <= 1
 clq91:  x67 + x100 <= 1
 clq92:  x104 + x129 + x162 <= 1
 clq93:  x31 + x79 + x89 <= 1
 clq94:  x51 + x169 <= 1
 clq95:  x90 + x148 <= 1
 clq96:  x76 + x101 + x164 <= 1
 clq97:  x103 + x173 <= 1
 clq98:  x33 + x60 + x80 <= 1
 clq99:  x80 + x84 + x137 <= 1
 clq100: x54 + x132 <= 1
 clq101: x63 + x124 + x169 <= 1
 clq102: x43 + x88 + x154 <= 1
 clq103: x6 + x26 + x78 <= 1
 clq104: x46 + x130 <= 1
 clq105: x52 + x111 + x142 <= 1
 clq106: x25 + x33 + x52 + x66 <= 1
 clq107: x78 + x171 <= 1
 clq108: x16 + x42 <= 1
 clq109: x39 + x53 + x59 <= 1
 clq110: x58 + x103 + x129 <= 1
 clq111: x98 + x161 <= 1
 clq112: x33 + x56 + x144 <= 1
 clq113: x42 + x53 <= 1
 clq114: x39 + x55 + x60 <= 1
 clq115: x13 + x24 + x99 + x102 <= 1
 clq116: x57 + x104 + x162 <= 1
 clq117: x16 + x17 + x125 + x163 <= 1
 clq118: x47 + x75 + x118 <= 1
 clq119: x3 + x106 + x112 <= 1
 clq120: x133 + x164 <= 1
 clq121: x12 + x37 + x79 <= 1
 clq122: x14 + x97 + x127 <= 1
 clq123: x60 + x126 <= 1
 clq124: x18 + x107 + x158 <= 1
 clq125: x9 + x46 + x74 <= 1
 clq126: x15 + x78 + x106 + x116 <= 1
 clq127: x18 + x103 + x119 <= 1
 clq128: x20 + x33 + x66 <= 1
 clq129: x45 + x84 + x160 <= 1
 clq130: x111 + x124 <= 1
 clq131: x22 + x46 + x169 <= 1
 clq132: x65 + x72 + x147 <= 1
 clq133: x59 + x64 <= 1
 clq134: x74 + x104 <= 1
 clq135: x75 + x78 + x118 <= 1
 clq136: x14 + x16 + x45 <= 1
 clq137: x10 + x83 <= 1
 clq138: x73 + x84 + x94 <= 1
 clq139: x43 + x94 + x96 <= 1
 clq140: x11 + x26 + x41 <= 1
 clq141: x3 + x12 + x15 + x98 <= 1
 clq142: x1 + x27 + x108 <= 1
 clq143: x64 + x70 + x112 <= 1
 clq144: x19 + x119 <= 1
 clq145: x13 + x14 + x24 <= 1
 clq146: x40 + x68 <= 1
 clq147: x76 + x77 + x144 <= 1
 clq148: x23 + x58 + x129 <= 1
 clq149: x72 + x129 <= 1
 clq150: x12 + x19 + x79 <= 1
 clq151: x24 + x153 <= 1
 clq152: x14 + x80 + x97 <= 1
 clq153: x7 + x27 + x162 <= 1
 clq154: x121 + x131 + x137 <= 1
 clq155: x41 + x55 + x150 <= 1
 clq156: x8 + x89 <= 1
 clq157: x37 + x127 <= 1
 clq158: x46 + x129 + x135 <= 1
 clq159: x140 + x155 <= 1
 clq160: x22 + x54 <= 1
 clq161: x22 + x23 + x118 <= 1
 clq162: x35 + x50 + x58 <= 1
 clq163: x35 + x45 + x148 <= 1
 clq164: x26 + x139 + x170 <= 1
 clq165: x78 + x91 + x133 <= 1
 clq166: x152 + x174 <= 1
 clq167: x63 + x80 + x84 <= 1
 clq168: x29 + x136 + x147 <= 1
 clq169: x71 + x113 + x122 <= 1
 clq170: x52 + x76 + x86 <= 1
 clq171: x9 + x50 + x168 <= 1
 clq172: x38 + x79 <= 1
 clq173: x63 + x153 + x169 <= 1
 clq174: x22 + x23 + x56 <= 1
 clq175: x57 + x99 + x100 <= 1
 clq176: x164 + x173 <= 1
 clq177: x63 + x116 + x124 <= 1
 clq178: x41 + x175 <= 1
 clq179: x63 + x73 + x84 + x115 <= 1
 clq180: x66 + x161 <= 1
 clq181: x62 + x171 <= 1
 clq182: x149 + x169 <= 1
 clq183: x58 + x139 <= 1
 clq184: x88 + x95 <= 1
 clq185: x63 + x80 + x91 <= 1
 clq186: x93 + x114 + x166 <= 1
 clq187: x77 + x85 + x152 <= 1
 clq188: x28 + x114 + x166 <= 1
 clq189: x131 + x137 + x154 <= 1
 clq190: x2 + x23 + x52 <= 1
 clq191: x107 + x109 + x149 + x159 <= 1
 clq192: x66 + x117 <= 1
 clq193: x107 + x154 + x159 <= 1
 clq194: x28 + x35 + x122 <= 1
 clq195: x21 + x61 + x128 <= 1
 clq196: x42 + x117 <= 1
 clq197: x40 + x56 <= 1
 clq198: x81 + x100 + x171 <= 1
 clq199: x70 + x118 + x120 <= 1
 clq200: x65 + x143 <= 1
 clq201: x5 + x162 <= 1
 clq202: x118 + x158 <= 1
 clq203: x23 + x42 <= 1
 clq204: x34 + x43 + x92 <= 1
 clq205: x32 + x148 <= 1
 clq206: x148 + x161 <= 1
 clq207: x12 + x87 + x158 <= 1
 clq208: x72 + x169 <= 1
 clq209: x88 + x113 + x169 <= 1
 clq210: x20 + x45 + x88 <= 1
 clq211: x4 + x69 + x119 <= 1
 clq212: x20 + x134 <= 1
 clq213: x92 + x141 <= 1
 clq214: x69 + x96 + x167 <= 1
 clq215: x18 + x117 + x162 <= 1
 clq216: x38 + x41 + x45 <= 1
 clq217: x70 + x131 + x174 <= 1
 clq218: x6 + x11 + x80 <= 1
 clq219: x11 + x131 + x133 <= 1
 clq220: x1 + x130 + x137 <= 1
 clq221: x149 + x156 <= 1
 clq222: x16 + x17 + x55 + x118 <= 1
 clq223: x41 + x131 + x137 <= 1
 clq224: x17 + x124 + x164 <= 1
 clq225: x123 + x138 <= 1
 clq226: x11 + x73 + x104 <= 1
 clq227: x31 + x116 + x117 <= 1
 clq228: x67 + x102 <= 1
 clq229: x97 + x109 + x159 <= 1
 clq230: x70 + x112 + x120 <= 1
 clq231: x51 + x69 + x75 <= 1
 clq232: x57 + x99 + x128 <= 1
 clq233: x59 + x122 + x132 <= 1
 clq234: x7 + x57 + x170 <= 1
 clq235: x119 + x126 <= 1
 clq236: x19 + x52 + x131 <= 1
 clq237: x113 + x166 <= 1
 clq238: x103 + x175 <= 1
 clq239: x73 + x123 + x141 <= 1
 clq240: x87 + x109 + x135 <= 1
 clq241: x19 + x164 <= 1
 clq242: x39 + x60 + x107 <= 1
 clq243: x36 + x63 + x77 <= 1
 clq244: x121 + x149 + x171 <= 1
 clq245: x37 + x85 <= 1
 clq246: x26 + x83 <= 1
 clq247: x25 + x119 <= 1
 clq248: x17 + x102 + x174 <= 1
 clq249: x55 + x131 + x136 <= 1
 clq250: x16 + x118 + x162 <= 1
 clq251: x47 + x118 + x134 <= 1
 clq252: x57 + x128 + x169 <= 1
 clq253: x43 + x58 <= 1
 clq254: x44 + x46 + x135 + x142 <= 1
 clq255: x84 + x121 + x137 <= 1
 clq256: x15 + x35 + x148 <= 1
 clq257: x3 + x12 + x45 <= 1
 clq258: x20 + x29 + x80 <= 1
 clq259: x68 + x75 <= 1
 clq260: x12 + x87 + x125 <= 1
 clq261: x3 + x11 + x133 <= 1
 clq262: x14 + x36 <= 1
 clq263: x17 + x81 <= 1
 clq264: x39 + x100 <= 1
 clq265: x20 + x88 + x139 <= 1
 clq266: x13 + x102 + x127 <= 1
 clq267: x79 + x81 + x115 <= 1
 clq268: x2 + x33 + x52 <= 1
 clq269: x68 + x127 <= 1
 clq270: x79 + x143 <= 1
 clq271: x30 + x43 + x92 <= 1
 clq272: x38 + x170 <= 1
 clq273: x43 + x96 + x100 <= 1
 clq274: x1 + x49 + x147 <= 1
 clq275: x17 + x114 + x174 <= 1
 clq276: x48 + x52 + x132 <= 1
 clq277: x1 + x68 <= 1
 clq278: x2 + x74 <= 1
 clq279: x7 + x51 <= 1
 clq280: x64 + x75 + x165 <= 1
 clq281: x73 + x84 + x142 <= 1
 clq282: x74 + x109 + x140 <= 1
 clq283: x41 + x109 <= 1
 clq284: x80 + x84 + x90 <= 1
 clq285: x78 + x102 + x106 <= 1
 clq286: x19 + x32 + x151 <= 1
 clq287: x42 + x68 <= 1
 clq288: x50 + x109 + x161 <= 1
 clq289: x16 + x24 + x137 <= 1
 clq290: x53 + x159 <= 1
 clq291: x4 + x6 + x154 <= 1
 clq292: x49 + x110 + x147 <= 1
 clq293: x35 + x58 + x105 <= 1
 clq294: x27 + x77 + x93 <= 1
 clq295: x134 + x140 + x142 <= 1
 clq296: x55 + x66 + x118 <= 1
 clq297: x8 + x70 + x162 <= 1
 clq298: x12 + x65 <= 1
 clq299: x31 + x40 + x80 <= 1
 clq300: x75 + x94 + x117 <= 1
 clq301: x13 + x127 + x158 <= 1
 clq302: x38 + x58 + x103 <= 1
 clq303: x111 + x140 + x142 <= 1
 clq304: x106 + x116 + x156 <= 1
 clq305: x1 + x98 + x163 <= 1
 clq306: x27 + x96 + x170 <= 1
 clq307: x47 + x139 <= 1
 clq308: x114 + x157 <= 1
 clq309: x110 + x175 <= 1
 clq310: x43 + x155 <= 1
 clq311: x38 + x77 <= 1
 clq312: x15 + x69 <= 1
 clq313: x78 + x106 + x145 <= 1
 clq314: x3 + x122 + x145 <= 1
 clq315: x22 + x46 + x67 <= 1
 clq316: x30 + x50 + x168 <= 1
 clq317: x144 + x162 <= 1
 clq318: x42 + x79 <= 1
 clq319: x70 + x131 + x136 <= 1
 clq320: x15 + x84 + x151 <= 1
 clq321: x34 + x43 + x154 <= 1
 clq322: x70 + x166 + x174 <= 1
 clq323: x86 + x104 + x113 + x122 <= 1
 clq324: x11 + x72 + x147 <= 1
 clq325: x48 + x147 <= 1
 clq326: x38 + x161 <= 1
 clq327: x18 + x107 + x166 <= 1
 clq328: x51 + x81 <= 1
 clq329: x19 + x77 + x131 + x140 <= 1
 clq330: x120 + x124 <= 1
 clq331: x55 + x156 <= 1
 clq332: x66 + x93 <= 1
 clq333: x18 + x78 + x123 <= 1
 clq334: x12 + x15 + x57 <= 1
 clq335: x57 + x121 + x128 <= 1
 clq336: x9 + x44 + x46 <= 1
 clq337: x103 + x104 + x115 <= 1
 clq338: x25 + x43 + x152 <= 1
 clq339: x26 + x27 + x108 + x170 <= 1
 clq340: x90 + x116 <= 1
 clq341: x79 + x113 + x115 <= 1
 clq342: x63 + x77 + x153 <= 1
 clq343: x19 + x77 + x151 <= 1
 clq344: x68 + x168 <= 1
 clq345: x19 + x135 <= 1
 clq346: x21 + x47 + x63 <= 1
 clq347: x26 + x86 <= 1
 clq348: x46 + x125 + x152 <= 1
 clq349: x57 + x58 + x82 <= 1
 clq350: x57 + x155 <= 1
 clq351: x98 + x162 <= 1
 clq352: x20 + x101 <= 1
 clq353: x17 + x61 + x141 <= 1
 clq354: x7 + x57 + x120 <= 1
 clq355: x103 + x118 + x167 <= 1
 clq356: x35 + x123 + x141 <= 1
 clq357: x15 + x59 + x84 <= 1
 clq358: x9 + x105 <= 1
 clq359: x4 + x140 + x142 <= 1
 clq360: x43 + x49 + x96 <= 1
 clq361: x88 + x90 + x103 <= 1
 clq362: x31 + x112 + x167 <= 1
 clq363: x5 + x6 + x158 <= 1
 clq364: x17 + x141 + x170 <= 1
 clq365: x119 + x120 <= 1
 clq366: x72 + x111 <= 1
 clq367: x74 + x94 + x117 <= 1
 clq368: x93 + x159 <= 1
 clq369: x3 + x91 + x112 <= 1
 clq370: x36 + x65 + x147 <= 1
 clq371: x19 + x48 + x165 <= 1
 clq372: x39 + x93 <= 1
 clq373: x56 + x64 + x73 <= 1
 clq374: x35 + x126 + x163 <= 1
 clq375: x52 + x123 <= 1
 clq376: x14 + x16 + x163 <= 1
 clq377: x37 + x63 + x80 <= 1
 clq378: x100 + x144 + x173 <= 1
 clq379: x36 + x142 + x147 <= 1
 clq380: x83 + x106 + x114 <= 1
 clq381: x123 + x145 + x167 <= 1
 clq382: x25 + x26 + x108 <= 1
 clq383: x97 + x113 + x131 <= 1
 clq384: x99 + x100 + x165 <= 1
 clq385: x17 + x114 + x165 <= 1
 clq386: x9 + x42 + x156 <= 1
 clq387: x9 + x101 + x156 <= 1
 clq388: x11 + x76 + x84 <= 1
 clq389: x54 + x143 + x155 <= 1
 clq390: x97 + x125 + x159 <= 1
 clq391: x139 + x159 <= 1
 clq392: x31 + x133 <= 1
 clq393: x1 + x33 <= 1
 clq394: x46 + x89 + x152 <= 1
 clq395: x3 + x45 + x110 <= 1
 clq396: x56 + x113 + x115 <= 1
 clq397: x56 + x64 + x173 <= 1
 clq398: x9 + x32 <= 1
 clq399: x74 + x84 + x100 <= 1
 clq400: x61 + x120 + x156 <= 1
 clq401: x11 + x14 + x80 <= 1
 clq402: x17 + x32 <= 1
 clq403: x14 + x152 <= 1
 clq404: x6 + x11 + x132 <= 1
 clq405: x45 + x89 + x92 <= 1
 clq406: x4 + x85 + x158 <= 1
 clq407: x41 + x137 + x172 <= 1
 clq408: x38 + x41 + x94 <= 1
 clq409: x3 + x43 + x154 <= 1
 clq410: x69 + x138 <= 1
 clq411: x13 + x69 + x134 <= 1
 clq412: x18 + x77 + x123 <= 1
 clq413: x35 + x40 + x125 + x165 <= 1
 clq414: x91 + x96 + x127 <= 1
 clq415: x3 + x173 <= 1
 clq416: x90 + x98 <= 1
 clq417: x10 + x117 <= 1
 clq418: x71 + x136 + x147 <= 1
 clq419: x5 + x158 + x171 <= 1
 clq420: x34 + x111 <= 1
 clq421: x26 + x48 <= 1
 clq422: x29 + x40 + x80 <= 1
 clq423: x72 + x99 <= 1
 clq424: x37 + x163 + x175 <= 1
 clq425: x126 + x172 <= 1
 clq426: x29 + x40 + x59 <= 1
 clq427: x27 + x87 + x105 <= 1
 clq428: x6 + x11 + x82 <= 1
 clq429: x16 + x28 + x125 <= 1
 clq430: x62 + x104 + x108 <= 1
 clq431: x12 + x29 + x136 <= 1
 clq432: x100 + x119 + x157 <= 1
 clq433: x24 + x117 <= 1
 clq434: x13 + x57 + x94 <= 1
 clq435: x32 + x129 + x154 <= 1
 clq436: x52 + x102 + x104 <= 1
 clq437: x73 + x84 + x85 <= 1
 clq438: x154 + x160 <= 1
 clq439: x2 + x97 + x113 <= 1
 clq440: x74 + x100 + x140 <= 1
 clq441: x16 + x84 + x137 <= 1
 clq442: x51 + x59 + x71 + x122 <= 1
 clq443: x1 + x50 + x97 <= 1
 clq444: x34 + x150 <= 1
 clq445: x2 + x159 + x165 <= 1
 clq446: x99 + x166 <= 1
 clq447: x41 + x95 <= 1
 clq448: x87 + x109 + x133 <= 1
 clq449: x158 + x169 <= 1
 clq450: x4 + x10 <= 1
 clq451: x19 + x50 <= 1
 clq452: x20 + x115 <= 1
 clq453: x15 + x160 + x165 <= 1
 clq454: x69 + x88 + x97 <= 1
 clq455: x29 + x149 <= 1
 clq456: x1 + x97 + x130 <= 1
 clq457: x11 + x41 + x55 + x131 <= 1
 clq458: x126 + x164 <= 1
 clq459: x17 + x50 + x55 <= 1
 clq460: x106 + x109 + x114 <= 1
 clq461: x107 + x129 + x158 <= 1
 clq462: x99 + x136 + x175 <= 1
 clq463: x20 + x121 <= 1
 clq464: x25 + x114 <= 1
 clq465: x88 + x103 + x169 <= 1
 clq466: x78 + x122 + x145 <= 1
 clq467: x53 + x137 + x147 <= 1
 clq468: x1 + x103 + x167 <= 1
 clq469: x13 + x94 + x122 <= 1
 clq470: x24 + x135 + x142 <= 1
 clq471: x126 + x167 <= 1
 clq472: x6 + x59 + x132 <= 1
 clq473: x32 + x123 <= 1
 clq474: x5 + x52 + x76 <= 1
 clq475: x42 + x97 <= 1
 clq476: x2 + x97 + x114 <= 1
 clq477: x7 + x120 + x173 <= 1
 clq478: x25 + x37 + x79 <= 1
 clq479: x55 + x151 <= 1
 clq480: x1 + x82 + x97 <= 1
 clq481: x54 + x99 + x152 <= 1
 clq482: x100 + x157 + x171 <= 1
 clq483: x105 + x138 + x169 <= 1
 clq484: x88 + x125 + x163 <= 1
 clq485: x4 + x53 + x136 <= 1
 clq486: x18 + x108 + x170 <= 1
 clq487: x6 + x164 <= 1
 clq488: x30 + x43 + x152 <= 1
 clq489: x3 + x15 + x106 <= 1
 clq490: x15 + x48 + x165 + x175 <= 1
 clq491: x56 + x88 + x113 <= 1
 clq492: x8 + x34 + x116 <= 1
 clq493: x46 + x132 <= 1
 clq494: x34 + x38 + x83 <= 1
 clq495: x108 + x122 + x156 <= 1
 clq496: x40 + x65 + x151 <= 1
 clq497: x6 + x92 <= 1
 clq498: x15 + x53 + x135 <= 1
 clq499: x69 + x96 + x153 <= 1
 clq500: x155 + x158 <= 1
 clq501: x92 + x169 <= 1
 clq502: x112 + x120 + x167 <= 1
 clq503: x12 + x19 + x136 <= 1
 clq504: x5 + x52 + x66 <= 1
 clq505: x77 + x131 + x144 + x157 <= 1
 clq506: x30 + x50 + x97 <= 1
 clq507: x91 + x103 + x156 <= 1
 clq508: x2 + x24 <= 1
 clq509: x109 + x114 + x132 <= 1
 clq510: x4 + x116 + x153 <= 1
 clq511: x96 + x124 <= 1
 clq512: x3 + x72 + x106 <= 1
 clq513: x28 + x38 + x45 <= 1
 clq514: x36 + x102 <= 1
 clq515: x91 + x111 <= 1
 clq516: x26 + x40 + x98 + x139 <= 1
 clq517: x62 + x72 <= 1
 clq518: x4 + x38 + x59 <= 1
 clq519: x2 + x44 <= 1
 clq520: x1 + x124 + x172 <= 1
 clq521: x61 + x68 <= 1
 clq522: x108 + x144 + x157 <= 1
 clq523: x7 + x47 <= 1
 clq524: x22 + x67 + x123 <= 1
 clq525: x47 + x75 + x135 <= 1
 clq526: x70 + x118 + x128 <= 1
 clq527: x122 + x174 <= 1
 clq528: x95 + x152 <= 1
 clq529: x39 + x55 + x118 <= 1
 clq530: x12 + x71 + x172 <= 1
 clq531: x107 + x149 + x166 <= 1
 clq532: x67 + x123 + x136 + x175 <= 1
 clq533: x65 + x120 <= 1
 clq534: x44 + x78 <= 1
 clq535: x23 + x51 + x85 <= 1
 clq536: x87 + x156 <= 1
 clq537: x40 + x118 <= 1
 clq538: x62 + x105 <= 1
 clq539: x8 + x25 + x131 <= 1
 clq540: x17 + x125 + x159 + x165 <= 1
 clq541: x109 + x110 + x147 <= 1
 clq542: x27 + x77 + x157 <= 1
 clq543: x12 + x43 + x96 <= 1
 clq544: x101 + x112 + x171 <= 1
 clq545: x48 + x90 + x165 <= 1
 clq546: x28 + x56 <= 1
 clq547: x73 + x91 + x141 <= 1
 clq548: x36 + x81 <= 1
 clq549: x10 + x44 <= 1
 clq550: x1 + x112 + x167 <= 1
 clq551: x88 + x174 <= 1
 clq552: x52 + x86 + x150 <= 1
 clq553: x29 + x174 <= 1
 clq554: x21 + x101 + x144 <= 1
 clq555: x135 + x150 <= 1
 clq556: x17 + x49 <= 1
 clq557: x24 + x71 + x125 <= 1
 clq558: x112 + x113 <= 1
 clq559: x40 + x80 + x137 <= 1
 clq560: x3 + x15 + x151 <= 1
 clq561: x83 + x135 <= 1
 clq562: x8 + x96 <= 1
 clq563: x35 + x36 + x63 <= 1
 clq564: x17 + x55 + x105 <= 1
 clq565: x18 + x49 + x119 <= 1
 clq566: x59 + x74 + x157 <= 1
 clq567: x44 + x99 <= 1
 clq568: x32 + x117 + x149 <= 1
 clq569: x111 + x118 <= 1
 clq570: x96 + x143 + x170 <= 1
 clq571: x37 + x49 + x53 + x147 <= 1
 clq572: x50 + x101 + x144 <= 1
 clq573: x88 + x90 + x120 <= 1
 clq574: x20 + x119 <= 1
 clq575: x129 + x146 + x154 <= 1
 clq576: x94 + x108 + x122 <= 1
 clq577: x33 + x100 + x144 <= 1
 clq578: x18 + x108 + x132 <= 1
 clq579: x22 + x84 + x94 <= 1
 clq580: x5 + x49 + x52 <= 1
 clq581: x5 + x47 + x63 <= 1
 clq582: x107 + x115 <= 1
 clq583: x79 + x90 <= 1
 clq584: x18 + x49 + x110 <= 1
 clq585: x60 + x146 <= 1
 clq586: x79 + x89 + x172 <= 1
 clq587: x25 + x55 + x79 <= 1
 clq588: x77 + x93 + x152 <= 1
 clq589: x28 + x45 + x114 + x133 <= 1
 clq590: x30 + x151 <= 1
 clq591: x26 + x124 <= 1
 clq592: x24 + x99 + x175 <= 1
 clq593: x61 + x143 + x175 <= 1
 clq594: x43 + x59 <= 1
 clq595: x73 + x87 + x104 + x129 <= 1
 clq596: x22 + x107 <= 1
 clq597: x44 + x60 <= 1
 clq598: x50 + x75 + x144 <= 1
 clq599: x11 + x73 + x84 <= 1
 clq600: x39 + x148 <= 1
 clq601: x125 + x143 + x163 <= 1
 clq602: x19 + x61 <= 1
 clq603: x10 + x100 + x151 <= 1
 clq604: x32 + x110 + x134 <= 1
 clq605: x110 + x116 + x147 <= 1
 clq606: x34 + x43 + x80 <= 1
 clq607: x64 + x82 <= 1
 clq608: x10 + x79 <= 1
 clq609: x13 + x57 + x130 <= 1
 clq610: x47 + x106 <= 1
 clq611: x12 + x83 + x96 <= 1
 clq612: x25 + x43 + x88 <= 1
 clq613: x28 + x55 + x136 <= 1
 clq614: x86 + x89 <= 1
 clq615: x50 + x109 + x133 <= 1
 clq616: x13 + x81 + x131 <= 1
 clq617: x17 + x70 + x118 <= 1
 clq618: x45 + x82 + x110 <= 1
 clq619: x14 + x97 + x122 <= 1
 clq620: x27 + x89 <= 1
 clq621: x30 + x62 + x76 <= 1
 clq622: x41 + x62 <= 1
 clq623: x18 + x103 + x166 <= 1
 clq624: x74 + x93 <= 1
 clq625: x32 + x57 + x111 <= 1
 clq626: x59 + x74 + x84 <= 1
 clq627: x125 + x143 + x155 <= 1
 clq628: x52 + x104 + x153 <= 1
 clq629: x48 + x81 <= 1
 clq630: x43 + x91 + x161 <= 1
 clq631: x42 + x174 <= 1
 clq632: x105 + x107 + x121 <= 1
 clq633: x72 + x130 <= 1
 clq634: x42 + x71 <= 1
 clq635: x73 + x84 + x160 <= 1
 clq636: x67 + x76 + x164 <= 1
 clq637: x2 + x6 + x36 <= 1
 clq638: x54 + x111 <= 1
 clq639: x98 + x141 <= 1
 clq640: x69 + x75 + x119 <= 1
 clq641: x1 + x137 + x147 <= 1
 clq642: x56 + x77 + x140 <= 1
 clq643: x9 + x66 <= 1
 clq644: x12 + x57 + x79 <= 1
 clq645: x53 + x59 + x157 <= 1
 clq646: x115 + x130 <= 1
 clq647: x5 + x67 + x88 <= 1
 clq648: x22 + x118 + x162 <= 1
 clq649: x73 + x123 + x160 <= 1
 clq650: x77 + x123 + x157 <= 1
 clq651: x62 + x80 <= 1
 clq652: x12 + x98 + x158 <= 1
 clq653: x25 + x43 + x79 <= 1
 clq654: x17 + x63 + x124 <= 1
 clq655: x10 + x35 <= 1
 clq656: x2 + x68 <= 1
 clq657: x63 + x124 + x136 <= 1
 clq658: x13 + x24 + x81 <= 1
 clq659: x61 + x120 + x138 <= 1
 clq660: x10 + x13 <= 1
 clq661: x37 + x149 + x165 + x175 <= 1
 clq662: x85 + x130 <= 1
 clq663: x21 + x56 + x144 + x173 <= 1
 clq664: x130 + x160 <= 1
 clq665: x14 + x16 + x112 + x167 <= 1
 clq666: x57 + x66 + x99 <= 1
 clq667: x22 + x95 <= 1
 clq668: x45 + x92 + x110 <= 1
 clq669: x39 + x107 + x142 <= 1
 clq670: x89 + x118 + x134 <= 1
 clq671: x7 + x32 + x57 <= 1
 clq672: x76 + x141 <= 1
 clq673: x23 + x34 + x56 <= 1
 clq674: x49 + x129 <= 1
 clq675: x77 + x134 + x140 <= 1
 clq676: x45 + x114 + x142 <= 1
 clq677: x11 + x119 <= 1
 clq678: x15 + x116 + x160 <= 1
 clq679: x43 + x44 + x46 <= 1
 clq680: x46 + x148 <= 1
 clq681: x14 + x148 + x167 <= 1
 clq682: x35 + x93 + x141 <= 1
 clq683: x50 + x101 + x109 <= 1
 clq684: x92 + x144 <= 1
 clq685: x116 + x147 + x156 <= 1
 clq686: x148 + x162 <= 1
 clq687: x16 + x73 + x118 <= 1
 clq688: x28 + x45 + x61 <= 1
 clq689: x70 + x120 + x131 <= 1
 clq690: x84 + x138 <= 1
 clq691: x142 + x161 <= 1
 clq692: x4 + x89 <= 1
 clq693: x1 + x98 + x108 + x172 <= 1
 clq694: x28 + x35 + x45 <= 1
 clq695: x43 + x85 + x166 <= 1
 clq696: x35 + x42 + x158 <= 1
 clq697: x14 + x22 <= 1
 clq698: x26 + x27 + x53 <= 1
 clq699: x35 + x37 + x50 <= 1
 clq700: x31 + x43 + x152 <= 1
 clq701: x105 + x140 + x162 <= 1
 clq702: x31 + x105 <= 1
 clq703: x33 + x80 + x144 <= 1
 clq704: x21 + x59 + x90 <= 1
 clq705: x18 + x107 + x164 <= 1
 clq706: x86 + x144 + x173 <= 1
 clq707: x60 + x70 <= 1
 clq708: x49 + x77 + x140 <= 1
 clq709: x126 + x138 <= 1
 clq710: x31 + x119 <= 1
 clq711: x5 + x128 <= 1
 clq712: x34 + x92 + x139 <= 1
 clq713: x85 + x156 <= 1
 clq714: x23 + x57 + x58 <= 1
 clq715: x10 + x138 + x155 <= 1
 clq716: x30 + x125 + x152 <= 1
 clq717: x5 + x170 <= 1
 clq718: x14 + x52 + x112 <= 1
 clq719: x29 + x52 <= 1
 clq720: x3 + x33 <= 1
 clq721: x88 + x97 + x125 <= 1
 clq722: x115 + x128 <= 1
 clq723: x84 + x85 + x166 <= 1
 clq724: x80 + x110 <= 1
 clq725: x7 + x150 <= 1
 clq726: x125 + x146 + x163 <= 1
 clq727: x34 + x70 + x74 <= 1
 clq728: x85 + x148 <= 1
 clq729: x5 + x114 <= 1
 clq730: x67 + x72 <= 1
 clq731: x34 + x70 + x128 <= 1
 clq732: x13 + x41 + x94 <= 1
 clq733: x31 + x97 + x127 <= 1
 clq734: x4 + x23 + x85 <= 1
 clq735: x68 + x142 <= 1
 clq736: x40 + x107 + x164 <= 1
 clq737: x12 + x107 + x158 <= 1
 clq738: x145 + x150 <= 1
 clq739: x34 + x56 + x66 <= 1
 clq740: x21 + x29 + x55 <= 1
 clq741: x16 + x92 + x112 <= 1
 clq742: x53 + x137 + x167 <= 1
 clq743: x139 + x156 <= 1
 clq744: x12 + x83 + x107 <= 1
 clq745: x1 + x103 + x124 <= 1
 clq746: x1 + x6 + x82 <= 1
 clq747: x6 + x152 <= 1
 clq748: x61 + x90 + x120 <= 1
 clq749: x46 + x129 + x152 <= 1
 clq750: x2 + x106 + x114 <= 1
 clq751: x75 + x121 + x137 <= 1
 clq752: x31 + x54 + x77 + x152 <= 1
 clq753: x45 + x84 + x142 <= 1
 clq754: x56 + x108 + x144 <= 1
 clq755: x66 + x125 + x146 <= 1
 clq756: x18 + x47 + x103 <= 1
 clq757: x81 + x108 + x115 <= 1
 clq758: x60 + x171 <= 1
 clq759: x50 + x143 + x168 <= 1
 clq760: x1 + x107 + x172 <= 1
 clq761: x21 + x56 + x88 <= 1
 clq762: x115 + x126 <= 1
 clq763: x18 + x71 + x78 <= 1
 clq764: x19 + x96 + x127 <= 1
 clq765: x32 + x82 + x110 <= 1
 clq766: x37 + x107 + x149 <= 1
 clq767: x8 + x10 <= 1
 clq768: x74 + x170 <= 1
 clq769: x26 + x27 + x93 <= 1
 clq770: x70 + x86 <= 1
 clq771: x59 + x84 + x90 <= 1
 clq772: x29 + x50 + x161 <= 1
 clq773: x72 + x170 <= 1
 clq774: x114 + x167 + x168 <= 1
 clq775: x76 + x78 + x118 <= 1
 clq776: x18 + x69 + x132 <= 1
 clq777: x73 + x101 + x160 <= 1
 clq778: x58 + x74 <= 1
 clq779: x69 + x147 + x153 <= 1
 clq780: x121 + x125 + x149 <= 1
 clq781: x51 + x83 + x122 <= 1
 clq782: x19 + x52 + x66 <= 1
 clq783: x50 + x143 + x144 <= 1
 clq784: x74 + x158 <= 1
 clq785: x2 + x23 + x36 <= 1
 clq786: x16 + x54 <= 1
 clq787: x104 + x108 + x122 <= 1
 clq788: x5 + x50 <= 1
 clq789: x54 + x76 + x101 <= 1
 clq790: x12 + x60 + x107 <= 1
 clq791: x91 + x93 + x141 <= 1
 clq792: x36 + x86 <= 1
 clq793: x25 + x55 + x66 + x67 <= 1
 clq794: x73 + x87 + x160 <= 1
 clq795: x104 + x116 + x153 <= 1
 clq796: x50 + x72 <= 1
 clq797: x51 + x60 <= 1
 clq798: x12 + x107 + x132 <= 1
 clq799: x39 + x174 <= 1
 clq800: x36 + x60 <= 1
 clq801: x24 + x140 + x142 <= 1
 clq802: x105 + x143 <= 1
 clq803: x2 + x6 + x8 <= 1
 clq804: x31 + x115 + x152 <= 1
 clq805: x48 + x55 <= 1
 clq806: x35 + x40 + x148 <= 1
 clq807: x16 + x45 + x92 <= 1
 clq808: x42 + x86 <= 1
 clq809: x17 + x159 + x174 <= 1
 clq810: x62 + x154 <= 1
 clq811: x86 + x119 <= 1
 clq812: x16 + x59 + x167 <= 1
 clq813: x33 + x158 <= 1
 clq814: x90 + x150 <= 1
 clq815: x96 + x109 <= 1
 clq816: x58 + x87 + x105 <= 1
 clq817: x22 + x58 + x63 <= 1
 clq818: x35 + x58 + x141 <= 1
 clq819: x149 + x171 + x175 <= 1
 clq820: x62 + x89 <= 1
 clq821: x5 + x85 + x158 <= 1
 clq822: x120 + x138 + x152 + x173 <= 1
 clq823: x75 + x115 <= 1
 clq824: x20 + x155 <= 1
 clq825: x123 + x124 + x136 <= 1
 clq826: x35 + x58 + x163 <= 1
 clq827: x117 + x150 <= 1
 clq828: x15 + x57 + x99 <= 1
 clq829: x53 + x136 + x144 + x147 <= 1
 clq830: x59 + x139 + x167 <= 1
 clq831: x14 + x148 + x170 <= 1
 clq832: x33 + x175 <= 1
 clq833: x95 + x141 <= 1
 clq834: x143 + x155 + x168 <= 1
 clq835: x154 + x170 <= 1
 clq836: x1 + x76 + x124 <= 1
 clq837: x5 + x65 <= 1
 clq838: x29 + x50 + x55 <= 1
 clq839: x131 + x140 + x145 <= 1
 clq840: x8 + x25 + x26 <= 1
 clq841: x95 + x171 <= 1
 clq842: x54 + x78 + x116 <= 1
 clq843: x9 + x73 + x101 <= 1
 clq844: x17 + x63 + x159 <= 1
 clq845: x73 + x149 <= 1
 clq846: x16 + x93 <= 1
 clq847: x47 + x127 + x132 <= 1
 clq848: x120 + x132 <= 1
 clq849: x44 + x95 <= 1
 clq850: x62 + x126 <= 1
 clq851: x54 + x76 + x77 + x152 <= 1
Bounds
 0 <= x1 <= 1
 0 <= x2 <= 1
 0 <= x3 <= 1
 0 <= x4 <= 1
 0 <= x5 <= 1
 0 <= x6 <= 1
 0 <= x7 <= 1
 0 <= x8 <= 1
 0 <= x9 <= 1
 0 <= x10 <= 1
 0 <= x11 <= 1
 0 <= x12 <= 1
 0 <= x13 <= 1
 0 <= x14 <= 1
 0 <= x15 <= 1
 0 <= x16 <= 1
 0 <= x17 <= 1
 0 <= x18 <= 1
 0 <= x19 <= 1
 0 <= x20 <= 1
 0 <= x21 <= 1
 0 <= x22 <= 1
 0 <= x23 <= 1
 0 <= x24 <= 1
 0 <= x25 <= 1
 0 <= x26 <= 1
 0 <= x27 <= 1
 0 <= x28 <= 1
 0 <= x29 <= 1
 0 <= x30 <= 1
 0 <= x31 <= 1
 0 <= x32 <= 1
 0 <= x33 <= 1
 0 <= x34 <= 1
 0 <= x35 <= 1
 0 <= x36 <= 1
 0 <= x37 <= 1
 0 <= x38 <= 1
 0 <= x39 <= 1
 0 <= x40 <= 1
 0 <= x41 <= 1
 0 <= x42 <= 1
 0 <= x43 <= 1
 0 <= x44 <= 1
 0 <= x45 <= 1
 0 <= x46 <= 1
 0 <= x47 <= 1
 0 <= x48 <= 1
 0 <= x49 <= 1
 0 <= x50 <= 1
 0 <= x51 <= 1
 0 <= x52 <= 1
 0 <= x53 <= 1
 0 <= x54 <= 1
 0 <= x55 <= 1
 0 <= x56 <= 1
 0 <= x57 <= 1
 0 <= x58 <= 1
 0 <= x59 <= 1
 0 <= x60 <= 1
 0 <= x61 <= 1
 0 <= x62 <= 1
 0 <= x63 <= 1
 0 <= x64 <= 1
 0 <= x65 <= 1
 0 <= x66 <= 1
 0 <= x67 <= 1
 0 <= x68 <= 1
 0 <= x69 <= 1
 0 <= x70 <= 1
 0 <= x71 <= 1
 0 <= x72 <= 1
 0 <= x73 <= 1
 0 <= x74 <= 1
 0 <= x75 <= 1
 0 <= x76 <= 1
 0 <= x77 <= 1
 0 <= x78 <= 1
 0 <= x79 <= 1
 0 <= x80 <= 1
 0 <= x81 <= 1
 0 <= x82 <= 1
 0 <= x83 <= 1
 0 <= x84 <= 1
 0 <= x85 <= 1
 0 <= x86 <= 1
 0 <= x87 <= 1
 0 <= x88 <= 1
 0 <= x89 <= 1
 0 <= x90 <= 1
 0 <= x91 <= 1
 0 <= x92 <= 1
 0 <= x93 <= 1
 0 <= x94 <= 1
 0 <= x95 <= 1
 0 <= x96 <= 1
 0 <= x97 <= 1
 0 <= x98 <= 1
 0 <= x99 <= 1
 0 <= x100 <= 1
 0 <= x101 <= 1
 0 <= x102 <= 1
 0 <= x103 <= 1
 0 <= x104 <= 1
 0 <= x105 <= 1
 0 <= x106 <= 1
 0 <= x107 <= 1
 0 <= x108 <= 1
 0 <= x109 <= 1
 0 <= x110 <= 1
 0 <= x111 <= 1
 0 <= x112 <= 1
 0 <= x113 <= 1
 0 <= x114 <= 1
 0 <= x115 <= 1
 0 <= x116 <= 1
 0 <= x117 <= 1
 0 <= x118 <= 1
 0 <= x119 <= 1
 0 <= x120 <= 1
 0 <= x121 <= 1
 0 <= x122 <= 1
 0 <= x123 <= 1
 0 <= x124 <= 1
 0 <= x125 <= 1
 0 <= x126 <= 1
 0 <= x127 <= 1
 0 <= x128 <= 1
 0 <= x129 <= 1
 0 <= x130 <= 1
 0 <= x131 <= 1
 0 <= x132 <= 1
 0 <= x133 <= 1
 0 <= x134 <= 1
 0 <= x135 <= 1
 0 <= x136 <= 1
 0 <= x137 <= 1
 0 <= x138 <= 1
 0 <= x139 <= 1
 0 <= x140 <= 1
 0 <= x141 <= 1
 0 <= x142 <= 1
 0 <= x143 <= 1
 0 <= x144 <= 1
 0 <= x145 <= 1
 0 <= x146 <= 1
 0 <= x147 <= 1
 0 <= x148 <= 1
 0 <= x149 <= 1
 0 <= x150 <= 1
 0 <= x151 <= 1
 0 <= x152 <= 1
 0 <= x153 <= 1
 0 <= x154 <= 1
 0 <= x155 <= 1
 0 <= x156 <= 1
 0 <= x157 <= 1
 0 <= x158 <= 1
 0 <= x159 <= 1
 0 <= x160 <= 1
 0 <= x161 <= 1
 0 <= x162 <= 1
 0 <= x163 <= 1
 0 <= x164 <= 1
 0 <= x165 <= 1
 0 <= x166 <= 1
 0 <= x167 <= 1
 0 <= x168 <= 1
 0 <= x169 <= 1
 0 <= x170 <= 1
 0 <= x171 <= 1
 0 <= x172 <= 1
 0 <= x173 <= 1
 0 <= x174 <= 1
 0 <= x175 <= 1
Binaries
 x1  x2  x3  x4  x5  x6  x7  x8  x9  x10  x11  x12  x13  x14  x15  x16  x17 
 x18  x19  x20  x21  x22  x23  x24  x25  x26  x27  x28  x29  x30  x31  x32 
 x33  x34  x35  x36  x37  x38  x39  x40  x41  x42  x43  x44  x45  x46  x47 
 x48  x49  x50  x51  x52  x53  x54  x55  x56  x57  x58  x59  x60  x61  x62 
 x63  x64  x65  x66  x67  x68  x69  x70  x71  x72  x73  x74  x75  x76  x77 
 x78  x79  x80  x81  x82  x83  x84  x85  x86  x87  x88  x89  x90  x91  x92 
 x93  x94  x95  x96  x97  x98  x99  x100  x101  x102  x103  x104  x105  x106 
 x107  x108  x109  x110  x111  x112  x113  x114  x115  x116  x117  x118  x119 
 x120  x121  x122  x123  x124  x125  x126  x127  x128  x129  x130  x131  x132 
 x133  x134  x135  x136  x137  x138  x139  x140  x141  x142  x143  x144  x145 
 x146  x147  x148  x149  x150  x151  x152  x153  x154  x155  x156  x157  x158 
 x159  x160  x161  x162  x163  x164  x165  x166  x167  x168  x169  x170  x171 
 x172  x173  x174  x175 
End
